15310
101001010000011001011000110000
20 0 20 2 25 5 19 5 20 17 5 20 14 20 17 14 17 17 5 0 13 7 0 17 5 20 19 24 5 5 5 25 14 0 20 20 24 24 0 14 0 14 5 20 24 14 19 20 25 14 25 14 14 5 14 20 17 25 0 14 0 5 20 25 0 25 24 0 24 25 20 20 5 0 24 20 24 20 19 5 20 7 20 17 7 17 17 17 20 5 2 24 17 25 17 5 2 19 25 19 2 7 17 25 2 25 17 0 14 14 14 19 2 0 25 25 24 24 24 24 5 13 25 13 20 7 5 24 17 5 0 25 24 5 14 14 17 5 20 17 17 13 20 14 14 25 25 5 2 0 